55
27
0 35 36 38 40 41 42 47 48 53
1 30 32 35 36 37 38 40 41 42 47 48 49 52 54
2 32 34 35 37 38 40 41 45 47 51 53
3 32 33 35 36 38 40 41 42 44 45 46 47 48 53 54
4 29 30 31 35 37 38 41 42 47 48
5 32 34 35 36 37 38 40 45 47 48 49 53
6 29 31 32 33 35 36 38 39 42 47 48 52 53
7 30 32 33 34 35 36 37 38 40 42 43 45 47 48 53
8 29 30 32 36 37 38 40 41 42 45 48 51 52 53 54
9 30 31 32 35 37 38 41 42 45 47 50 53 54
10 29 30 33 36 42 47 49 51 53
11 27 28 30 32 35 37 40 45 47 48 53 54
12 29 30 32 33 34 35 37 38 49
13 30 35 40 41 42 46 47 51
14 31 32 33 35 41 42 45 48 49 53 54
15 28 30 31 35 36 37 40 41 47
16 29 34 36 37 38 50 54
17 31 36 37 42 49 52 53
18 31 32 33 35 39 54
19 33 36 38 49
20 32 34 50
21 30 33 34 36 54
22 38 39 43 54
23 33 46 47 48
24 31 41
25 28 52
26 42
